33 111
49 30
21 95
1 61
2 149
16 125
4 54
74 27
47 1
55 65
77 64
9 175
37 3
58 94
43 42
6 110
30 100
30 37
5 136
31 118
52 3
14 19
11 67
50 29
18 26
33 168
23 1
64 48
3 138
39 124
11 180
6 200
22 68
45 39
44 123
50 60
23 94
45 20
32 118
15 173
85 22
53 71
24 95
10 48
43 12
1 142
40 19
39 37
15 34
26 118
26 196
22 31
90 26
18 189
37 105
33 111
70 2
18 186
67 26
2 150
15 138
49 24
5 195
21 145
95 28
73 76
98 53
31 10
44 60
12 148
25 25
30 35
6 126
6 94
82 29
94 29
6 123
49 56
10 70
2 187
91 31
7 93
57 61
9 123
56 71
54 18
29 25
39 51
40 1
22 180
90 51
29 101
66 43
14 105
64 66
29 5
42 17
60 14
16 26
21 63
